\ LP format - for model browsing. Use MPS format to capture full model detail.
Minimize
  - 2.1757139900107868e+07 Y0_0_1_1_0 - 2.1757139900107868e+07 Y0_0_1_1_1
   - 2.1757139900107868e+07 Y0_0_1_1_2 - 2.1813580043735903e+07 Y0_0_1_2_0
   - 2.1813580043735903e+07 Y0_0_1_2_1 - 2.1813580043735903e+07 Y0_0_1_2_2
   - 3.69030920840929e+07 Y0_0_2_1_0 - 3.69030920840929e+07 Y0_0_2_1_1
   - 3.69030920840929e+07 Y0_0_2_1_2 - 3.2322693921901803e+07 Y0_0_2_2_0
   - 3.2322693921901803e+07 Y0_0_2_2_1 - 3.2322693921901803e+07 Y0_0_2_2_2
   - 5.3754711701617815e+07 Y0_0_3_1_0 - 5.3754711701617815e+07 Y0_0_3_1_1
   - 5.3754711701617815e+07 Y0_0_3_1_2 - 4.9393905484983504e+07 Y0_0_3_2_0
   - 4.9393905484983504e+07 Y0_0_3_2_1 - 4.9393905484983504e+07 Y0_0_3_2_2
   - 1.8844580691617042e+07 Y0_1_1_2_0 - 1.8844580691617042e+07 Y0_1_1_2_1
   - 1.8844580691617042e+07 Y0_1_1_2_2 - 2.88839239351537e+07 Y0_1_2_2_0
   - 2.88839239351537e+07 Y0_1_2_2_1 - 2.88839239351537e+07 Y0_1_2_2_2
   - 4.4992068705356479e+07 Y0_1_3_2_0 - 4.4992068705356479e+07 Y0_1_3_2_1
   - 4.4992068705356479e+07 Y0_1_3_2_2 - 4.1659994826494381e+07 Y1_0_2_1_0
   - 4.1659994826494381e+07 Y1_0_2_1_1 - 4.1659994826494381e+07 Y1_0_2_1_2
   - 3.6672815160009027e+07 Y1_0_2_2_0 - 3.6672815160009027e+07 Y1_0_2_2_1
   - 3.6672815160009027e+07 Y1_0_2_2_2 - 2.3513095746285085e+07 Y1_0_3_1_0
   - 2.3513095746285085e+07 Y1_0_3_1_1 - 2.3513095746285085e+07 Y1_0_3_1_2
   - 2.1319543029559884e+07 Y1_0_3_2_0 - 2.1319543029559884e+07 Y1_0_3_2_1
   - 2.1319543029559884e+07 Y1_0_3_2_2 - 3.1744020341230597e+07 Y1_1_2_2_0
   - 3.1744020341230597e+07 Y1_1_2_2_1 - 3.1744020341230597e+07 Y1_1_2_2_2
   - 1.7939166952898849e+07 Y1_1_3_2_0 - 1.7939166952898849e+07 Y1_1_3_2_1
   - 1.7939166952898849e+07 Y1_1_3_2_2 - 2.5660877220958002e+07 Y2_0_3_1_0
   - 2.5660877220958002e+07 Y2_0_3_1_1 - 2.5660877220958002e+07 Y2_0_3_1_2
   - 2.3265102900925696e+07 Y2_0_3_2_0 - 2.3265102900925696e+07 Y2_0_3_2_1
   - 2.3265102900925696e+07 Y2_0_3_2_2 - 2.2915938403393552e+07 Y2_1_3_2_0
   - 2.2915938403393552e+07 Y2_1_3_2_1 - 2.2915938403393552e+07 Y2_1_3_2_2
Subject To
 R0: X0_0_0 + X0_0_1 + X0_0_2 = 1
 R1: X0_1_0 + X0_1_1 + X0_1_2 = 1
 R2: X0_2_0 + X0_2_1 + X0_2_2 = 1
 R3: X1_0_0 + X1_0_1 + X1_0_2 = 1
 R4: X1_1_0 + X1_1_1 + X1_1_2 = 1
 R5: X1_2_0 + X1_2_1 + X1_2_2 = 1
 R6: X2_0_0 + X2_0_1 + X2_0_2 = 1
 R7: X2_1_0 + X2_1_1 + X2_1_2 = 1
 R8: X2_2_0 + X2_2_1 + X2_2_2 = 1
 R9: X3_0_0 + X3_0_1 + X3_0_2 = 1
 R10: X3_1_0 + X3_1_1 + X3_1_2 = 1
 R11: X3_2_0 + X3_2_1 + X3_2_2 = 1
 R12: X0_0_0 + X0_1_0 + X0_2_0 = 1
 R13: X1_0_0 + X1_1_0 + X1_2_0 = 1
 R14: X2_0_0 + X2_1_0 + X2_2_0 = 1
 R15: X3_0_0 + X3_1_0 + X3_2_0 = 1
 R16: X0_0_1 + X0_1_1 + X0_2_1 = 1
 R17: X1_0_1 + X1_1_1 + X1_2_1 = 1
 R18: X2_0_1 + X2_1_1 + X2_2_1 = 1
 R19: X3_0_1 + X3_1_1 + X3_2_1 = 1
 R20: X0_0_2 + X0_1_2 + X0_2_2 = 1
 R21: X1_0_2 + X1_1_2 + X1_2_2 = 1
 R22: X2_0_2 + X2_1_2 + X2_2_2 = 1
 R23: X3_0_2 + X3_1_2 + X3_2_2 = 1
 R24: - X0_0_0 + Y0_0_1_1_0 <= 0
 R25: - X0_0_0 + Y0_0_1_1_0 <= 0
 R26: - 2 X0_0_0 + Y0_0_1_1_0 >= -1
 R27: - X0_0_0 + Y0_0_1_2_0 <= 0
 R28: - X0_1_0 + Y0_0_1_2_0 <= 0
 R29: - X0_0_0 - X0_1_0 + Y0_0_1_2_0 >= -1
 R30: - X0_0_0 + Y0_0_2_1_0 <= 0
 R31: - X0_2_0 + Y0_0_2_1_0 <= 0
 R32: - X0_0_0 - X0_2_0 + Y0_0_2_1_0 >= -1
 R33: - X0_0_0 + Y0_0_2_2_0 <= 0
 R34: - X1_0_0 + Y0_0_2_2_0 <= 0
 R35: - X0_0_0 - X1_0_0 + Y0_0_2_2_0 >= -1
 R36: - X0_0_0 + Y0_0_3_1_0 <= 0
 R37: - X1_1_0 + Y0_0_3_1_0 <= 0
 R38: - X0_0_0 - X1_1_0 + Y0_0_3_1_0 >= -1
 R39: - X0_0_0 + Y0_0_3_2_0 <= 0
 R40: - X1_2_0 + Y0_0_3_2_0 <= 0
 R41: - X0_0_0 - X1_2_0 + Y0_0_3_2_0 >= -1
 R42: - X0_1_0 + Y0_1_1_2_0 <= 0
 R43: - X0_0_0 + Y0_1_1_2_0 <= 0
 R44: - X0_0_0 - X0_1_0 + Y0_1_1_2_0 >= -1
 R45: - X0_1_0 + Y0_1_2_2_0 <= 0
 R46: - X0_1_0 + Y0_1_2_2_0 <= 0
 R47: - 2 X0_1_0 + Y0_1_2_2_0 >= -1
 R48: - X0_1_0 + Y0_1_3_2_0 <= 0
 R49: - X0_2_0 + Y0_1_3_2_0 <= 0
 R50: - X0_1_0 - X0_2_0 + Y0_1_3_2_0 >= -1
 R51: - X0_2_0 + Y1_0_2_1_0 <= 0
 R52: - X0_0_0 + Y1_0_2_1_0 <= 0
 R53: - X0_0_0 - X0_2_0 + Y1_0_2_1_0 >= -1
 R54: - X0_2_0 + Y1_0_2_2_0 <= 0
 R55: - X0_1_0 + Y1_0_2_2_0 <= 0
 R56: - X0_1_0 - X0_2_0 + Y1_0_2_2_0 >= -1
 R57: - X0_2_0 + Y1_0_3_1_0 <= 0
 R58: - X0_2_0 + Y1_0_3_1_0 <= 0
 R59: - 2 X0_2_0 + Y1_0_3_1_0 >= -1
 R60: - X0_2_0 + Y1_0_3_2_0 <= 0
 R61: - X1_0_0 + Y1_0_3_2_0 <= 0
 R62: - X0_2_0 - X1_0_0 + Y1_0_3_2_0 >= -1
 R63: - X1_0_0 + Y1_1_2_2_0 <= 0
 R64: - X0_0_0 + Y1_1_2_2_0 <= 0
 R65: - X0_0_0 - X1_0_0 + Y1_1_2_2_0 >= -1
 R66: - X1_0_0 + Y1_1_3_2_0 <= 0
 R67: - X0_1_0 + Y1_1_3_2_0 <= 0
 R68: - X0_1_0 - X1_0_0 + Y1_1_3_2_0 >= -1
 R69: - X1_1_0 + Y2_0_3_1_0 <= 0
 R70: - X0_0_0 + Y2_0_3_1_0 <= 0
 R71: - X0_0_0 - X1_1_0 + Y2_0_3_1_0 >= -1
 R72: - X1_1_0 + Y2_0_3_2_0 <= 0
 R73: - X0_1_0 + Y2_0_3_2_0 <= 0
 R74: - X0_1_0 - X1_1_0 + Y2_0_3_2_0 >= -1
 R75: - X1_2_0 + Y2_1_3_2_0 <= 0
 R76: - X0_0_0 + Y2_1_3_2_0 <= 0
 R77: - X0_0_0 - X1_2_0 + Y2_1_3_2_0 >= -1
 R78: - X0_0_1 + Y0_0_1_1_1 <= 0
 R79: - X0_0_1 + Y0_0_1_1_1 <= 0
 R80: - 2 X0_0_1 + Y0_0_1_1_1 >= -1
 R81: - X0_0_1 + Y0_0_1_2_1 <= 0
 R82: - X0_1_1 + Y0_0_1_2_1 <= 0
 R83: - X0_0_1 - X0_1_1 + Y0_0_1_2_1 >= -1
 R84: - X0_0_1 + Y0_0_2_1_1 <= 0
 R85: - X0_2_1 + Y0_0_2_1_1 <= 0
 R86: - X0_0_1 - X0_2_1 + Y0_0_2_1_1 >= -1
 R87: - X0_0_1 + Y0_0_2_2_1 <= 0
 R88: - X1_0_1 + Y0_0_2_2_1 <= 0
 R89: - X0_0_1 - X1_0_1 + Y0_0_2_2_1 >= -1
 R90: - X0_0_1 + Y0_0_3_1_1 <= 0
 R91: - X1_1_1 + Y0_0_3_1_1 <= 0
 R92: - X0_0_1 - X1_1_1 + Y0_0_3_1_1 >= -1
 R93: - X0_0_1 + Y0_0_3_2_1 <= 0
 R94: - X1_2_1 + Y0_0_3_2_1 <= 0
 R95: - X0_0_1 - X1_2_1 + Y0_0_3_2_1 >= -1
 R96: - X0_1_1 + Y0_1_1_2_1 <= 0
 R97: - X0_0_1 + Y0_1_1_2_1 <= 0
 R98: - X0_0_1 - X0_1_1 + Y0_1_1_2_1 >= -1
 R99: - X0_1_1 + Y0_1_2_2_1 <= 0
 R100: - X0_1_1 + Y0_1_2_2_1 <= 0
 R101: - 2 X0_1_1 + Y0_1_2_2_1 >= -1
 R102: - X0_1_1 + Y0_1_3_2_1 <= 0
 R103: - X0_2_1 + Y0_1_3_2_1 <= 0
 R104: - X0_1_1 - X0_2_1 + Y0_1_3_2_1 >= -1
 R105: - X0_2_1 + Y1_0_2_1_1 <= 0
 R106: - X0_0_1 + Y1_0_2_1_1 <= 0
 R107: - X0_0_1 - X0_2_1 + Y1_0_2_1_1 >= -1
 R108: - X0_2_1 + Y1_0_2_2_1 <= 0
 R109: - X0_1_1 + Y1_0_2_2_1 <= 0
 R110: - X0_1_1 - X0_2_1 + Y1_0_2_2_1 >= -1
 R111: - X0_2_1 + Y1_0_3_1_1 <= 0
 R112: - X0_2_1 + Y1_0_3_1_1 <= 0
 R113: - 2 X0_2_1 + Y1_0_3_1_1 >= -1
 R114: - X0_2_1 + Y1_0_3_2_1 <= 0
 R115: - X1_0_1 + Y1_0_3_2_1 <= 0
 R116: - X0_2_1 - X1_0_1 + Y1_0_3_2_1 >= -1
 R117: - X1_0_1 + Y1_1_2_2_1 <= 0
 R118: - X0_0_1 + Y1_1_2_2_1 <= 0
 R119: - X0_0_1 - X1_0_1 + Y1_1_2_2_1 >= -1
 R120: - X1_0_1 + Y1_1_3_2_1 <= 0
 R121: - X0_1_1 + Y1_1_3_2_1 <= 0
 R122: - X0_1_1 - X1_0_1 + Y1_1_3_2_1 >= -1
 R123: - X1_1_1 + Y2_0_3_1_1 <= 0
 R124: - X0_0_1 + Y2_0_3_1_1 <= 0
 R125: - X0_0_1 - X1_1_1 + Y2_0_3_1_1 >= -1
 R126: - X1_1_1 + Y2_0_3_2_1 <= 0
 R127: - X0_1_1 + Y2_0_3_2_1 <= 0
 R128: - X0_1_1 - X1_1_1 + Y2_0_3_2_1 >= -1
 R129: - X1_2_1 + Y2_1_3_2_1 <= 0
 R130: - X0_0_1 + Y2_1_3_2_1 <= 0
 R131: - X0_0_1 - X1_2_1 + Y2_1_3_2_1 >= -1
 R132: - X0_0_2 + Y0_0_1_1_2 <= 0
 R133: - X0_0_2 + Y0_0_1_1_2 <= 0
 R134: - 2 X0_0_2 + Y0_0_1_1_2 >= -1
 R135: - X0_0_2 + Y0_0_1_2_2 <= 0
 R136: - X0_1_2 + Y0_0_1_2_2 <= 0
 R137: - X0_0_2 - X0_1_2 + Y0_0_1_2_2 >= -1
 R138: - X0_0_2 + Y0_0_2_1_2 <= 0
 R139: - X0_2_2 + Y0_0_2_1_2 <= 0
 R140: - X0_0_2 - X0_2_2 + Y0_0_2_1_2 >= -1
 R141: - X0_0_2 + Y0_0_2_2_2 <= 0
 R142: - X1_0_2 + Y0_0_2_2_2 <= 0
 R143: - X0_0_2 - X1_0_2 + Y0_0_2_2_2 >= -1
 R144: - X0_0_2 + Y0_0_3_1_2 <= 0
 R145: - X1_1_2 + Y0_0_3_1_2 <= 0
 R146: - X0_0_2 - X1_1_2 + Y0_0_3_1_2 >= -1
 R147: - X0_0_2 + Y0_0_3_2_2 <= 0
 R148: - X1_2_2 + Y0_0_3_2_2 <= 0
 R149: - X0_0_2 - X1_2_2 + Y0_0_3_2_2 >= -1
 R150: - X0_1_2 + Y0_1_1_2_2 <= 0
 R151: - X0_0_2 + Y0_1_1_2_2 <= 0
 R152: - X0_0_2 - X0_1_2 + Y0_1_1_2_2 >= -1
 R153: - X0_1_2 + Y0_1_2_2_2 <= 0
 R154: - X0_1_2 + Y0_1_2_2_2 <= 0
 R155: - 2 X0_1_2 + Y0_1_2_2_2 >= -1
 R156: - X0_1_2 + Y0_1_3_2_2 <= 0
 R157: - X0_2_2 + Y0_1_3_2_2 <= 0
 R158: - X0_1_2 - X0_2_2 + Y0_1_3_2_2 >= -1
 R159: - X0_2_2 + Y1_0_2_1_2 <= 0
 R160: - X0_0_2 + Y1_0_2_1_2 <= 0
 R161: - X0_0_2 - X0_2_2 + Y1_0_2_1_2 >= -1
 R162: - X0_2_2 + Y1_0_2_2_2 <= 0
 R163: - X0_1_2 + Y1_0_2_2_2 <= 0
 R164: - X0_1_2 - X0_2_2 + Y1_0_2_2_2 >= -1
 R165: - X0_2_2 + Y1_0_3_1_2 <= 0
 R166: - X0_2_2 + Y1_0_3_1_2 <= 0
 R167: - 2 X0_2_2 + Y1_0_3_1_2 >= -1
 R168: - X0_2_2 + Y1_0_3_2_2 <= 0
 R169: - X1_0_2 + Y1_0_3_2_2 <= 0
 R170: - X0_2_2 - X1_0_2 + Y1_0_3_2_2 >= -1
 R171: - X1_0_2 + Y1_1_2_2_2 <= 0
 R172: - X0_0_2 + Y1_1_2_2_2 <= 0
 R173: - X0_0_2 - X1_0_2 + Y1_1_2_2_2 >= -1
 R174: - X1_0_2 + Y1_1_3_2_2 <= 0
 R175: - X0_1_2 + Y1_1_3_2_2 <= 0
 R176: - X0_1_2 - X1_0_2 + Y1_1_3_2_2 >= -1
 R177: - X1_1_2 + Y2_0_3_1_2 <= 0
 R178: - X0_0_2 + Y2_0_3_1_2 <= 0
 R179: - X0_0_2 - X1_1_2 + Y2_0_3_1_2 >= -1
 R180: - X1_1_2 + Y2_0_3_2_2 <= 0
 R181: - X0_1_2 + Y2_0_3_2_2 <= 0
 R182: - X0_1_2 - X1_1_2 + Y2_0_3_2_2 >= -1
 R183: - X1_2_2 + Y2_1_3_2_2 <= 0
 R184: - X0_0_2 + Y2_1_3_2_2 <= 0
 R185: - X0_0_2 - X1_2_2 + Y2_1_3_2_2 >= -1
Bounds
Binaries
 X0_0_0 X0_0_1 X0_0_2 X0_1_0 X0_1_1 X0_1_2 X0_2_0 X0_2_1 X0_2_2 X1_0_0
 X1_0_1 X1_0_2 X1_1_0 X1_1_1 X1_1_2 X1_2_0 X1_2_1 X1_2_2 X2_0_0 X2_0_1
 X2_0_2 X2_1_0 X2_1_1 X2_1_2 X2_2_0 X2_2_1 X2_2_2 X3_0_0 X3_0_1 X3_0_2
 X3_1_0 X3_1_1 X3_1_2 X3_2_0 X3_2_1 X3_2_2 Y0_0_1_1_0 Y0_0_1_1_1 Y0_0_1_1_2
 Y0_0_1_2_0 Y0_0_1_2_1 Y0_0_1_2_2 Y0_0_2_1_0 Y0_0_2_1_1 Y0_0_2_1_2
 Y0_0_2_2_0 Y0_0_2_2_1 Y0_0_2_2_2 Y0_0_3_1_0 Y0_0_3_1_1 Y0_0_3_1_2
 Y0_0_3_2_0 Y0_0_3_2_1 Y0_0_3_2_2 Y0_1_1_2_0 Y0_1_1_2_1 Y0_1_1_2_2
 Y0_1_2_2_0 Y0_1_2_2_1 Y0_1_2_2_2 Y0_1_3_2_0 Y0_1_3_2_1 Y0_1_3_2_2
 Y1_0_2_1_0 Y1_0_2_1_1 Y1_0_2_1_2 Y1_0_2_2_0 Y1_0_2_2_1 Y1_0_2_2_2
 Y1_0_3_1_0 Y1_0_3_1_1 Y1_0_3_1_2 Y1_0_3_2_0 Y1_0_3_2_1 Y1_0_3_2_2
 Y1_1_2_2_0 Y1_1_2_2_1 Y1_1_2_2_2 Y1_1_3_2_0 Y1_1_3_2_1 Y1_1_3_2_2
 Y2_0_3_1_0 Y2_0_3_1_1 Y2_0_3_1_2 Y2_0_3_2_0 Y2_0_3_2_1 Y2_0_3_2_2
 Y2_1_3_2_0 Y2_1_3_2_1 Y2_1_3_2_2
End
